Maximize
  - 2.9269991536935 edge_0_1_0_0 - 2.22675 edge_0_2_0_0
   - 1.00799 edge_0_3_0_0 - 3.930066791196 edge_0_4_0_0
   + 0.91608969371256 edge_0_5_0_0 - 2.8023456563575 edge_0_6_0_0
   - 3.9564878634954 edge_0_8_0_0 - 3.43381 edge_0_11_0_0
   - 0.8722554206350001 edge_0_12_0_0 - 4.054081770197301 edge_0_15_0_0
   + 1.2386105302295 edge_1_2_0_0 + 1.1107137054793 edge_1_3_0_0
   + 0.2892224719704756 edge_1_4_0_0 + 0.5517134711092271 edge_1_5_0_0
   + 0.052147437903938 edge_1_6_0_0 - 0.6463985119453097 edge_1_7_0_0
   - 0.51963012162583 edge_1_8_0_0 - 0.8614249923712133 edge_1_9_0_0
   - 0.7571491280220858 edge_1_11_0_0 - 0.686260790108613 edge_1_12_0_0
   + 0.8831500147325817 edge_1_16_0_0 + 2.3284570675387 edge_2_1_0_0
   + 1.220603810733367 edge_2_3_0_0 + 1.015799183591036 edge_2_4_0_0
   + 2.37853989950376 edge_2_5_0_0 + 2.047365467784 edge_2_6_0_0
   - 0.0699329863117124 edge_2_7_0_0 + 1.057533966980949 edge_2_8_0_0
   + 0.20726511596544 edge_2_11_0_0 + 0.4110468185232732 edge_2_12_0_0
   - 0.3973136784568359 edge_2_13_0_0 - 0.3431345759609009 edge_2_14_0_0
   - 0.2498953469777048 edge_2_15_0_0 + 2.17349843508 edge_2_16_0_0
   + 2.9783101334055 edge_3_1_0_0 + 2.66724 edge_3_2_0_0
   + 2.3536820189012 edge_3_4_0_0 + 2.228643238347 edge_3_5_0_0
   + 1.3203079535195 edge_3_6_0_0 + 0.17129841239896 edge_3_7_0_0
   + 1.10278 edge_3_8_0_0 + 0.26762628139412 edge_3_9_0_0
   + 1.2315435813912 edge_3_11_0_0 + 1.46936642295958 edge_3_12_0_0
   - 0.36171400468599 edge_3_13_0_0 - 0.5923895362660894 edge_3_14_0_0
   + 0.3173247545392375 edge_3_15_0_0 + 4.3964597362124 edge_3_16_0_0
   - 1.204035876961854 edge_4_1_0_0 - 0.6672571894961048 edge_4_2_0_0
   - 0.2976936697407788 edge_4_3_0_0 + 0.1867494812496597 edge_4_5_0_0
   + 0.1836654065616 edge_4_6_0_0 - 0.8551126276264001 edge_4_11_0_0
   - 0.4362676261230882 edge_4_12_0_0 + 0.639870261045927 edge_5_1_0_0
   + 0.81808925077026 edge_5_2_0_0 + 0.81963953473716 edge_5_3_0_0
   + 2.453397645573182 edge_5_4_0_0 + 2.952567479059914 edge_5_6_0_0
   + 0.3475565110157173 edge_5_7_0_0 + 2.029013612073 edge_5_8_0_0
   + 0.0183877606689508 edge_5_9_0_0 + 0.7714621042828625 edge_5_11_0_0
   + 0.7364625092090197 edge_5_12_0_0 - 0.2676133526394122 edge_5_13_0_0
   + 0.0370995551251848 edge_5_15_0_0 + 3.799298233176503 edge_5_16_0_0
   + 0.3671557606627888 edge_6_1_0_0 - 0.5274318417704 edge_6_2_0_0
   + 0.6811487956553001 edge_6_3_0_0 + 0.3428038949600007 edge_6_4_0_0
   + 1.720937362141836 edge_6_5_0_0 + 0.9063754101149768 edge_6_7_0_0
   + 2.1917066028495 edge_6_8_0_0 + 0.5483308640337434 edge_6_9_0_0
   + 1.180647744959159 edge_6_11_0_0 + 2.043197890607449 edge_6_12_0_0
   + 0.3878435036738408 edge_6_13_0_0 + 0.4836932880826091 edge_6_14_0_0
   + 0.5716692753140383 edge_6_15_0_0 + 1.733326065342834 edge_6_16_0_0
   - 1.1140742224612 edge_7_2_0_0 - 0.54156504797604 edge_7_3_0_0
   + 0.0214027863406037 edge_7_4_0_0 - 0.4258219081856523 edge_7_5_0_0
   + 0.3288555450135151 edge_7_6_0_0 + 1.0535486904404 edge_7_8_0_0
   + 0.4963534726278786 edge_7_9_0_0 - 0.2919200345438298 edge_7_11_0_0
   - 0.8268558595549487 edge_7_12_0_0 - 0.8524906333955079 edge_7_13_0_0
   - 0.4361395623644684 edge_7_15_0_0 - 0.6652788391121052 edge_7_16_0_0
   - 0.21827533285171 edge_8_1_0_0 - 0.7598212070105665 edge_8_2_0_0
   - 0.343546 edge_8_3_0_0 + 0.1081804347624 edge_8_4_0_0
   + 0.1917804026178912 edge_8_5_0_0 + 0.6653899686439499 edge_8_6_0_0
   + 3.089764102504348 edge_8_7_0_0 + 0.5462097772365 edge_8_9_0_0
   + 0.0952613956494086 edge_8_10_0_0 + 1.5565094396564 edge_8_11_0_0
   + 1.3302535748442 edge_8_12_0_0 + 0.232172111044793 edge_8_13_0_0
   + 0.0753909279570887 edge_8_14_0_0 + 0.0607830729836232 edge_8_15_0_0
   + 1.2500390999712 edge_8_16_0_0 - 0.28723834823354 edge_9_3_0_0
   - 0.4748879362779248 edge_9_4_0_0 - 0.1327922005732679 edge_9_6_0_0
   + 0.3319159369792034 edge_9_7_0_0 + 0.536768451522 edge_9_8_0_0
   + 1.12417859614256 edge_9_11_0_0 + 0.5162197640411968 edge_9_12_0_0
   - 0.0782305099708125 edge_9_13_0_0 - 0.2639968922769683 edge_9_15_0_0
   + 0.2061699616282425 edge_9_16_0_0 + 0.0929809452996874 edge_11_1_0_0
   - 0.032650048455024 edge_11_2_0_0 - 0.7342066332955199 edge_11_3_0_0
   + 0.0605833866394389 edge_11_4_0_0 + 0.1181438535142656 edge_11_5_0_0
   - 0.00688375131389959 edge_11_6_0_0 + 1.511305183931038 edge_11_7_0_0
   + 1.161978932473502 edge_11_8_0_0 + 3.1801535134072 edge_11_9_0_0
   + 3.350988517741 edge_11_10_0_0 + 1.82542 edge_11_12_0_0
   - 0.0148821422676219 edge_11_13_0_0 - 0.30366672914303 edge_11_14_0_0
   + 0.7019525750333799 edge_11_15_0_0 + 1.21822 edge_11_16_0_0
   + 0.4975713869978466 edge_12_1_0_0 + 0.5191756720620119 edge_12_2_0_0
   + 0.75346932026366 edge_12_3_0_0 + 0.7500282896692265 edge_12_4_0_0
   + 1.787447182930758 edge_12_5_0_0 + 2.555277542964108 edge_12_6_0_0
   + 1.531708933472118 edge_12_7_0_0 + 1.287828254925366 edge_12_8_0_0
   + 2.984637726432153 edge_12_9_0_0 + 0.2374825179051 edge_12_10_0_0
   + 3.009754379298934 edge_12_11_0_0 + 0.6486731235220501 edge_12_13_0_0
   + 0.7751583277376141 edge_12_14_0_0 + 3.2218734595836 edge_12_15_0_0
   + 2.573890601929797 edge_12_16_0_0 - 0.7028428892141974 edge_13_7_0_0
   + 0.4706667453434656 edge_13_9_0_0 + 0.7436950667743477 edge_13_12_0_0
   + 0.6305766865147592 edge_13_14_0_0 + 1.278228793002783 edge_13_15_0_0
   + 0.2820220800603062 edge_13_16_0_0 - 1.009352094435014 edge_14_2_0_0
   - 0.1637544034099423 edge_14_4_0_0 + 0.1478564820759222 edge_14_6_0_0
   - 0.7167342511910338 edge_14_7_0_0 - 0.3631705770853275 edge_14_8_0_0
   - 0.4289917183817044 edge_14_12_0_0 + 1.26636885597867 edge_14_13_0_0
   + 0.4903159703015204 edge_14_15_0_0 - 0.5245486523437682 edge_14_16_0_0
   - 0.2994349843309376 edge_15_1_0_0 - 0.26594381713626 edge_15_2_0_0
   - 0.17018256848074 edge_15_3_0_0 + 0.0208362682575865 edge_15_4_0_0
   - 0.0915861430443726 edge_15_5_0_0 + 2.428281087159804 edge_15_6_0_0
   + 0.1364951535877006 edge_15_7_0_0 + 1.074434019057054 edge_15_8_0_0
   + 0.355660079842291 edge_15_9_0_0 + 0.8112832108775746 edge_15_11_0_0
   + 0.0628153062803052 edge_15_12_0_0 + 2.897192229488236 edge_15_13_0_0
   + 3.226961724015102 edge_15_14_0_0 + 0.56788084719954 edge_15_16_0_0
   - 1.223852599248822 edge_16_11_0_0 - 1.009787665911557 edge_16_13_0_0
   - 0.3604887701113986 edge_16_15_0_0
Subject To
 one_parent_1: edge_0_1_0_0 + edge_2_1_0_0 + edge_3_1_0_0 + edge_4_1_0_0
   + edge_5_1_0_0 + edge_6_1_0_0 + edge_8_1_0_0 + edge_11_1_0_0
   + edge_12_1_0_0 + edge_15_1_0_0 = 1
 consume_one_flow_unit_1: flow_0_1_0_0 - flow_1_2_0_0 - flow_1_3_0_0
   - flow_1_4_0_0 - flow_1_5_0_0 - flow_1_6_0_0 - flow_1_7_0_0
   - flow_1_8_0_0 - flow_1_9_0_0 - flow_1_11_0_0 - flow_1_12_0_0
   - flow_1_16_0_0 + flow_2_1_0_0 + flow_3_1_0_0 + flow_4_1_0_0
   + flow_5_1_0_0 + flow_6_1_0_0 + flow_8_1_0_0 + flow_11_1_0_0
   + flow_12_1_0_0 + flow_15_1_0_0 = 1
 one_parent_2: edge_0_2_0_0 + edge_1_2_0_0 + edge_3_2_0_0 + edge_4_2_0_0
   + edge_5_2_0_0 + edge_6_2_0_0 + edge_7_2_0_0 + edge_8_2_0_0
   + edge_11_2_0_0 + edge_12_2_0_0 + edge_14_2_0_0 + edge_15_2_0_0 = 1
 consume_one_flow_unit_2: flow_0_2_0_0 + flow_1_2_0_0 - flow_2_1_0_0
   - flow_2_3_0_0 - flow_2_4_0_0 - flow_2_5_0_0 - flow_2_6_0_0
   - flow_2_7_0_0 - flow_2_8_0_0 - flow_2_11_0_0 - flow_2_12_0_0
   - flow_2_13_0_0 - flow_2_14_0_0 - flow_2_15_0_0 - flow_2_16_0_0
   + flow_3_2_0_0 + flow_4_2_0_0 + flow_5_2_0_0 + flow_6_2_0_0
   + flow_7_2_0_0 + flow_8_2_0_0 + flow_11_2_0_0 + flow_12_2_0_0
   + flow_14_2_0_0 + flow_15_2_0_0 = 1
 one_parent_3: edge_0_3_0_0 + edge_1_3_0_0 + edge_2_3_0_0 + edge_4_3_0_0
   + edge_5_3_0_0 + edge_6_3_0_0 + edge_7_3_0_0 + edge_8_3_0_0
   + edge_9_3_0_0 + edge_11_3_0_0 + edge_12_3_0_0 + edge_15_3_0_0 = 1
 consume_one_flow_unit_3: flow_0_3_0_0 + flow_1_3_0_0 + flow_2_3_0_0
   - flow_3_1_0_0 - flow_3_2_0_0 - flow_3_4_0_0 - flow_3_5_0_0
   - flow_3_6_0_0 - flow_3_7_0_0 - flow_3_8_0_0 - flow_3_9_0_0
   - flow_3_11_0_0 - flow_3_12_0_0 - flow_3_13_0_0 - flow_3_14_0_0
   - flow_3_15_0_0 - flow_3_16_0_0 + flow_4_3_0_0 + flow_5_3_0_0
   + flow_6_3_0_0 + flow_7_3_0_0 + flow_8_3_0_0 + flow_9_3_0_0
   + flow_11_3_0_0 + flow_12_3_0_0 + flow_15_3_0_0 = 1
 one_parent_4: edge_0_4_0_0 + edge_1_4_0_0 + edge_2_4_0_0 + edge_3_4_0_0
   + edge_5_4_0_0 + edge_6_4_0_0 + edge_7_4_0_0 + edge_8_4_0_0
   + edge_9_4_0_0 + edge_11_4_0_0 + edge_12_4_0_0 + edge_14_4_0_0
   + edge_15_4_0_0 = 1
 consume_one_flow_unit_4: flow_0_4_0_0 + flow_1_4_0_0 + flow_2_4_0_0
   + flow_3_4_0_0 - flow_4_1_0_0 - flow_4_2_0_0 - flow_4_3_0_0
   - flow_4_5_0_0 - flow_4_6_0_0 - flow_4_11_0_0 - flow_4_12_0_0
   + flow_5_4_0_0 + flow_6_4_0_0 + flow_7_4_0_0 + flow_8_4_0_0
   + flow_9_4_0_0 + flow_11_4_0_0 + flow_12_4_0_0 + flow_14_4_0_0
   + flow_15_4_0_0 = 1
 one_parent_5: edge_0_5_0_0 + edge_1_5_0_0 + edge_2_5_0_0 + edge_3_5_0_0
   + edge_4_5_0_0 + edge_6_5_0_0 + edge_7_5_0_0 + edge_8_5_0_0
   + edge_11_5_0_0 + edge_12_5_0_0 + edge_15_5_0_0 = 1
 consume_one_flow_unit_5: flow_0_5_0_0 + flow_1_5_0_0 + flow_2_5_0_0
   + flow_3_5_0_0 + flow_4_5_0_0 - flow_5_1_0_0 - flow_5_2_0_0
   - flow_5_3_0_0 - flow_5_4_0_0 - flow_5_6_0_0 - flow_5_7_0_0
   - flow_5_8_0_0 - flow_5_9_0_0 - flow_5_11_0_0 - flow_5_12_0_0
   - flow_5_13_0_0 - flow_5_15_0_0 - flow_5_16_0_0 + flow_6_5_0_0
   + flow_7_5_0_0 + flow_8_5_0_0 + flow_11_5_0_0 + flow_12_5_0_0
   + flow_15_5_0_0 = 1
 one_parent_6: edge_0_6_0_0 + edge_1_6_0_0 + edge_2_6_0_0 + edge_3_6_0_0
   + edge_4_6_0_0 + edge_5_6_0_0 + edge_7_6_0_0 + edge_8_6_0_0
   + edge_9_6_0_0 + edge_11_6_0_0 + edge_12_6_0_0 + edge_14_6_0_0
   + edge_15_6_0_0 = 1
 consume_one_flow_unit_6: flow_0_6_0_0 + flow_1_6_0_0 + flow_2_6_0_0
   + flow_3_6_0_0 + flow_4_6_0_0 + flow_5_6_0_0 - flow_6_1_0_0
   - flow_6_2_0_0 - flow_6_3_0_0 - flow_6_4_0_0 - flow_6_5_0_0
   - flow_6_7_0_0 - flow_6_8_0_0 - flow_6_9_0_0 - flow_6_11_0_0
   - flow_6_12_0_0 - flow_6_13_0_0 - flow_6_14_0_0 - flow_6_15_0_0
   - flow_6_16_0_0 + flow_7_6_0_0 + flow_8_6_0_0 + flow_9_6_0_0
   + flow_11_6_0_0 + flow_12_6_0_0 + flow_14_6_0_0 + flow_15_6_0_0 = 1
 one_parent_7: edge_1_7_0_0 + edge_2_7_0_0 + edge_3_7_0_0 + edge_5_7_0_0
   + edge_6_7_0_0 + edge_8_7_0_0 + edge_9_7_0_0 + edge_11_7_0_0
   + edge_12_7_0_0 + edge_13_7_0_0 + edge_14_7_0_0 + edge_15_7_0_0 = 1
 consume_one_flow_unit_7: flow_1_7_0_0 + flow_2_7_0_0 + flow_3_7_0_0
   + flow_5_7_0_0 + flow_6_7_0_0 - flow_7_2_0_0 - flow_7_3_0_0
   - flow_7_4_0_0 - flow_7_5_0_0 - flow_7_6_0_0 - flow_7_8_0_0
   - flow_7_9_0_0 - flow_7_11_0_0 - flow_7_12_0_0 - flow_7_13_0_0
   - flow_7_15_0_0 - flow_7_16_0_0 + flow_8_7_0_0 + flow_9_7_0_0
   + flow_11_7_0_0 + flow_12_7_0_0 + flow_13_7_0_0 + flow_14_7_0_0
   + flow_15_7_0_0 = 1
 one_parent_8: edge_0_8_0_0 + edge_1_8_0_0 + edge_2_8_0_0 + edge_3_8_0_0
   + edge_5_8_0_0 + edge_6_8_0_0 + edge_7_8_0_0 + edge_9_8_0_0
   + edge_11_8_0_0 + edge_12_8_0_0 + edge_14_8_0_0 + edge_15_8_0_0 = 1
 consume_one_flow_unit_8: flow_0_8_0_0 + flow_1_8_0_0 + flow_2_8_0_0
   + flow_3_8_0_0 + flow_5_8_0_0 + flow_6_8_0_0 + flow_7_8_0_0
   - flow_8_1_0_0 - flow_8_2_0_0 - flow_8_3_0_0 - flow_8_4_0_0
   - flow_8_5_0_0 - flow_8_6_0_0 - flow_8_7_0_0 - flow_8_9_0_0
   - flow_8_10_0_0 - flow_8_11_0_0 - flow_8_12_0_0 - flow_8_13_0_0
   - flow_8_14_0_0 - flow_8_15_0_0 - flow_8_16_0_0 + flow_9_8_0_0
   + flow_11_8_0_0 + flow_12_8_0_0 + flow_14_8_0_0 + flow_15_8_0_0 = 1
 one_parent_9: edge_1_9_0_0 + edge_3_9_0_0 + edge_5_9_0_0 + edge_6_9_0_0
   + edge_7_9_0_0 + edge_8_9_0_0 + edge_11_9_0_0 + edge_12_9_0_0
   + edge_13_9_0_0 + edge_15_9_0_0 = 1
 consume_one_flow_unit_9: flow_1_9_0_0 + flow_3_9_0_0 + flow_5_9_0_0
   + flow_6_9_0_0 + flow_7_9_0_0 + flow_8_9_0_0 - flow_9_3_0_0
   - flow_9_4_0_0 - flow_9_6_0_0 - flow_9_7_0_0 - flow_9_8_0_0
   - flow_9_11_0_0 - flow_9_12_0_0 - flow_9_13_0_0 - flow_9_15_0_0
   - flow_9_16_0_0 + flow_11_9_0_0 + flow_12_9_0_0 + flow_13_9_0_0
   + flow_15_9_0_0 = 1
 one_parent_10: edge_8_10_0_0 + edge_11_10_0_0 + edge_12_10_0_0 = 1
 consume_one_flow_unit_10: flow_8_10_0_0 + flow_11_10_0_0 + flow_12_10_0_0
   = 1
 one_parent_11: edge_0_11_0_0 + edge_1_11_0_0 + edge_2_11_0_0
   + edge_3_11_0_0 + edge_4_11_0_0 + edge_5_11_0_0 + edge_6_11_0_0
   + edge_7_11_0_0 + edge_8_11_0_0 + edge_9_11_0_0 + edge_12_11_0_0
   + edge_15_11_0_0 + edge_16_11_0_0 = 1
 consume_one_flow_unit_11: flow_0_11_0_0 + flow_1_11_0_0 + flow_2_11_0_0
   + flow_3_11_0_0 + flow_4_11_0_0 + flow_5_11_0_0 + flow_6_11_0_0
   + flow_7_11_0_0 + flow_8_11_0_0 + flow_9_11_0_0 - flow_11_1_0_0
   - flow_11_2_0_0 - flow_11_3_0_0 - flow_11_4_0_0 - flow_11_5_0_0
   - flow_11_6_0_0 - flow_11_7_0_0 - flow_11_8_0_0 - flow_11_9_0_0
   - flow_11_10_0_0 - flow_11_12_0_0 - flow_11_13_0_0 - flow_11_14_0_0
   - flow_11_15_0_0 - flow_11_16_0_0 + flow_12_11_0_0 + flow_15_11_0_0
   + flow_16_11_0_0 = 1
 one_parent_12: edge_0_12_0_0 + edge_1_12_0_0 + edge_2_12_0_0
   + edge_3_12_0_0 + edge_4_12_0_0 + edge_5_12_0_0 + edge_6_12_0_0
   + edge_7_12_0_0 + edge_8_12_0_0 + edge_9_12_0_0 + edge_11_12_0_0
   + edge_13_12_0_0 + edge_14_12_0_0 + edge_15_12_0_0 = 1
 consume_one_flow_unit_12: flow_0_12_0_0 + flow_1_12_0_0 + flow_2_12_0_0
   + flow_3_12_0_0 + flow_4_12_0_0 + flow_5_12_0_0 + flow_6_12_0_0
   + flow_7_12_0_0 + flow_8_12_0_0 + flow_9_12_0_0 + flow_11_12_0_0
   - flow_12_1_0_0 - flow_12_2_0_0 - flow_12_3_0_0 - flow_12_4_0_0
   - flow_12_5_0_0 - flow_12_6_0_0 - flow_12_7_0_0 - flow_12_8_0_0
   - flow_12_9_0_0 - flow_12_10_0_0 - flow_12_11_0_0 - flow_12_13_0_0
   - flow_12_14_0_0 - flow_12_15_0_0 - flow_12_16_0_0 + flow_13_12_0_0
   + flow_14_12_0_0 + flow_15_12_0_0 = 1
 one_parent_13: edge_2_13_0_0 + edge_3_13_0_0 + edge_5_13_0_0
   + edge_6_13_0_0 + edge_7_13_0_0 + edge_8_13_0_0 + edge_9_13_0_0
   + edge_11_13_0_0 + edge_12_13_0_0 + edge_14_13_0_0 + edge_15_13_0_0
   + edge_16_13_0_0 = 1
 consume_one_flow_unit_13: flow_2_13_0_0 + flow_3_13_0_0 + flow_5_13_0_0
   + flow_6_13_0_0 + flow_7_13_0_0 + flow_8_13_0_0 + flow_9_13_0_0
   + flow_11_13_0_0 + flow_12_13_0_0 - flow_13_7_0_0 - flow_13_9_0_0
   - flow_13_12_0_0 - flow_13_14_0_0 - flow_13_15_0_0 - flow_13_16_0_0
   + flow_14_13_0_0 + flow_15_13_0_0 + flow_16_13_0_0 = 1
 one_parent_14: edge_2_14_0_0 + edge_3_14_0_0 + edge_6_14_0_0
   + edge_8_14_0_0 + edge_11_14_0_0 + edge_12_14_0_0 + edge_13_14_0_0
   + edge_15_14_0_0 = 1
 consume_one_flow_unit_14: flow_2_14_0_0 + flow_3_14_0_0 + flow_6_14_0_0
   + flow_8_14_0_0 + flow_11_14_0_0 + flow_12_14_0_0 + flow_13_14_0_0
   - flow_14_2_0_0 - flow_14_4_0_0 - flow_14_6_0_0 - flow_14_7_0_0
   - flow_14_8_0_0 - flow_14_12_0_0 - flow_14_13_0_0 - flow_14_15_0_0
   - flow_14_16_0_0 + flow_15_14_0_0 = 1
 one_parent_15: edge_0_15_0_0 + edge_2_15_0_0 + edge_3_15_0_0
   + edge_5_15_0_0 + edge_6_15_0_0 + edge_7_15_0_0 + edge_8_15_0_0
   + edge_9_15_0_0 + edge_11_15_0_0 + edge_12_15_0_0 + edge_13_15_0_0
   + edge_14_15_0_0 + edge_16_15_0_0 = 1
 consume_one_flow_unit_15: flow_0_15_0_0 + flow_2_15_0_0 + flow_3_15_0_0
   + flow_5_15_0_0 + flow_6_15_0_0 + flow_7_15_0_0 + flow_8_15_0_0
   + flow_9_15_0_0 + flow_11_15_0_0 + flow_12_15_0_0 + flow_13_15_0_0
   + flow_14_15_0_0 - flow_15_1_0_0 - flow_15_2_0_0 - flow_15_3_0_0
   - flow_15_4_0_0 - flow_15_5_0_0 - flow_15_6_0_0 - flow_15_7_0_0
   - flow_15_8_0_0 - flow_15_9_0_0 - flow_15_11_0_0 - flow_15_12_0_0
   - flow_15_13_0_0 - flow_15_14_0_0 - flow_15_16_0_0 + flow_16_15_0_0 = 1
 one_parent_16: edge_1_16_0_0 + edge_2_16_0_0 + edge_3_16_0_0
   + edge_5_16_0_0 + edge_6_16_0_0 + edge_7_16_0_0 + edge_8_16_0_0
   + edge_9_16_0_0 + edge_11_16_0_0 + edge_12_16_0_0 + edge_13_16_0_0
   + edge_14_16_0_0 + edge_15_16_0_0 = 1
 consume_one_flow_unit_16: flow_1_16_0_0 + flow_2_16_0_0 + flow_3_16_0_0
   + flow_5_16_0_0 + flow_6_16_0_0 + flow_7_16_0_0 + flow_8_16_0_0
   + flow_9_16_0_0 + flow_11_16_0_0 + flow_12_16_0_0 + flow_13_16_0_0
   + flow_14_16_0_0 + flow_15_16_0_0 - flow_16_11_0_0 - flow_16_13_0_0
   - flow_16_15_0_0 = 1
 root_flow: flow_0_1_0_0 + flow_0_2_0_0 + flow_0_3_0_0 + flow_0_4_0_0
   + flow_0_5_0_0 + flow_0_6_0_0 + flow_0_8_0_0 + flow_0_11_0_0
   + flow_0_12_0_0 + flow_0_15_0_0 = 16
 inactive_no_flow_0_1_0_0: flow_0_1_0_0 - 1000 edge_0_1_0_0 <= 0
 inactive_no_flow_0_2_0_0: flow_0_2_0_0 - 1000 edge_0_2_0_0 <= 0
 inactive_no_flow_0_3_0_0: flow_0_3_0_0 - 1000 edge_0_3_0_0 <= 0
 inactive_no_flow_0_4_0_0: flow_0_4_0_0 - 1000 edge_0_4_0_0 <= 0
 inactive_no_flow_0_5_0_0: flow_0_5_0_0 - 1000 edge_0_5_0_0 <= 0
 inactive_no_flow_0_6_0_0: flow_0_6_0_0 - 1000 edge_0_6_0_0 <= 0
 inactive_no_flow_0_8_0_0: flow_0_8_0_0 - 1000 edge_0_8_0_0 <= 0
 inactive_no_flow_0_11_0_0: flow_0_11_0_0 - 1000 edge_0_11_0_0 <= 0
 inactive_no_flow_0_12_0_0: flow_0_12_0_0 - 1000 edge_0_12_0_0 <= 0
 inactive_no_flow_0_15_0_0: flow_0_15_0_0 - 1000 edge_0_15_0_0 <= 0
 inactive_no_flow_1_2_0_0: flow_1_2_0_0 - 1000 edge_1_2_0_0 <= 0
 inactive_no_flow_1_3_0_0: flow_1_3_0_0 - 1000 edge_1_3_0_0 <= 0
 inactive_no_flow_1_4_0_0: flow_1_4_0_0 - 1000 edge_1_4_0_0 <= 0
 inactive_no_flow_1_5_0_0: flow_1_5_0_0 - 1000 edge_1_5_0_0 <= 0
 inactive_no_flow_1_6_0_0: flow_1_6_0_0 - 1000 edge_1_6_0_0 <= 0
 inactive_no_flow_1_7_0_0: flow_1_7_0_0 - 1000 edge_1_7_0_0 <= 0
 inactive_no_flow_1_8_0_0: flow_1_8_0_0 - 1000 edge_1_8_0_0 <= 0
 inactive_no_flow_1_9_0_0: flow_1_9_0_0 - 1000 edge_1_9_0_0 <= 0
 inactive_no_flow_1_11_0_0: flow_1_11_0_0 - 1000 edge_1_11_0_0 <= 0
 inactive_no_flow_1_12_0_0: flow_1_12_0_0 - 1000 edge_1_12_0_0 <= 0
 inactive_no_flow_1_16_0_0: flow_1_16_0_0 - 1000 edge_1_16_0_0 <= 0
 inactive_no_flow_2_1_0_0: flow_2_1_0_0 - 1000 edge_2_1_0_0 <= 0
 inactive_no_flow_2_3_0_0: flow_2_3_0_0 - 1000 edge_2_3_0_0 <= 0
 inactive_no_flow_2_4_0_0: flow_2_4_0_0 - 1000 edge_2_4_0_0 <= 0
 inactive_no_flow_2_5_0_0: flow_2_5_0_0 - 1000 edge_2_5_0_0 <= 0
 inactive_no_flow_2_6_0_0: flow_2_6_0_0 - 1000 edge_2_6_0_0 <= 0
 inactive_no_flow_2_7_0_0: flow_2_7_0_0 - 1000 edge_2_7_0_0 <= 0
 inactive_no_flow_2_8_0_0: flow_2_8_0_0 - 1000 edge_2_8_0_0 <= 0
 inactive_no_flow_2_11_0_0: flow_2_11_0_0 - 1000 edge_2_11_0_0 <= 0
 inactive_no_flow_2_12_0_0: flow_2_12_0_0 - 1000 edge_2_12_0_0 <= 0
 inactive_no_flow_2_13_0_0: flow_2_13_0_0 - 1000 edge_2_13_0_0 <= 0
 inactive_no_flow_2_14_0_0: flow_2_14_0_0 - 1000 edge_2_14_0_0 <= 0
 inactive_no_flow_2_15_0_0: flow_2_15_0_0 - 1000 edge_2_15_0_0 <= 0
 inactive_no_flow_2_16_0_0: flow_2_16_0_0 - 1000 edge_2_16_0_0 <= 0
 inactive_no_flow_3_1_0_0: flow_3_1_0_0 - 1000 edge_3_1_0_0 <= 0
 inactive_no_flow_3_2_0_0: flow_3_2_0_0 - 1000 edge_3_2_0_0 <= 0
 inactive_no_flow_3_4_0_0: flow_3_4_0_0 - 1000 edge_3_4_0_0 <= 0
 inactive_no_flow_3_5_0_0: flow_3_5_0_0 - 1000 edge_3_5_0_0 <= 0
 inactive_no_flow_3_6_0_0: flow_3_6_0_0 - 1000 edge_3_6_0_0 <= 0
 inactive_no_flow_3_7_0_0: flow_3_7_0_0 - 1000 edge_3_7_0_0 <= 0
 inactive_no_flow_3_8_0_0: flow_3_8_0_0 - 1000 edge_3_8_0_0 <= 0
 inactive_no_flow_3_9_0_0: flow_3_9_0_0 - 1000 edge_3_9_0_0 <= 0
 inactive_no_flow_3_11_0_0: flow_3_11_0_0 - 1000 edge_3_11_0_0 <= 0
 inactive_no_flow_3_12_0_0: flow_3_12_0_0 - 1000 edge_3_12_0_0 <= 0
 inactive_no_flow_3_13_0_0: flow_3_13_0_0 - 1000 edge_3_13_0_0 <= 0
 inactive_no_flow_3_14_0_0: flow_3_14_0_0 - 1000 edge_3_14_0_0 <= 0
 inactive_no_flow_3_15_0_0: flow_3_15_0_0 - 1000 edge_3_15_0_0 <= 0
 inactive_no_flow_3_16_0_0: flow_3_16_0_0 - 1000 edge_3_16_0_0 <= 0
 inactive_no_flow_4_1_0_0: flow_4_1_0_0 - 1000 edge_4_1_0_0 <= 0
 inactive_no_flow_4_2_0_0: flow_4_2_0_0 - 1000 edge_4_2_0_0 <= 0
 inactive_no_flow_4_3_0_0: flow_4_3_0_0 - 1000 edge_4_3_0_0 <= 0
 inactive_no_flow_4_5_0_0: flow_4_5_0_0 - 1000 edge_4_5_0_0 <= 0
 inactive_no_flow_4_6_0_0: flow_4_6_0_0 - 1000 edge_4_6_0_0 <= 0
 inactive_no_flow_4_11_0_0: flow_4_11_0_0 - 1000 edge_4_11_0_0 <= 0
 inactive_no_flow_4_12_0_0: flow_4_12_0_0 - 1000 edge_4_12_0_0 <= 0
 inactive_no_flow_5_1_0_0: flow_5_1_0_0 - 1000 edge_5_1_0_0 <= 0
 inactive_no_flow_5_2_0_0: flow_5_2_0_0 - 1000 edge_5_2_0_0 <= 0
 inactive_no_flow_5_3_0_0: flow_5_3_0_0 - 1000 edge_5_3_0_0 <= 0
 inactive_no_flow_5_4_0_0: flow_5_4_0_0 - 1000 edge_5_4_0_0 <= 0
 inactive_no_flow_5_6_0_0: flow_5_6_0_0 - 1000 edge_5_6_0_0 <= 0
 inactive_no_flow_5_7_0_0: flow_5_7_0_0 - 1000 edge_5_7_0_0 <= 0
 inactive_no_flow_5_8_0_0: flow_5_8_0_0 - 1000 edge_5_8_0_0 <= 0
 inactive_no_flow_5_9_0_0: flow_5_9_0_0 - 1000 edge_5_9_0_0 <= 0
 inactive_no_flow_5_11_0_0: flow_5_11_0_0 - 1000 edge_5_11_0_0 <= 0
 inactive_no_flow_5_12_0_0: flow_5_12_0_0 - 1000 edge_5_12_0_0 <= 0
 inactive_no_flow_5_13_0_0: flow_5_13_0_0 - 1000 edge_5_13_0_0 <= 0
 inactive_no_flow_5_15_0_0: flow_5_15_0_0 - 1000 edge_5_15_0_0 <= 0
 inactive_no_flow_5_16_0_0: flow_5_16_0_0 - 1000 edge_5_16_0_0 <= 0
 inactive_no_flow_6_1_0_0: flow_6_1_0_0 - 1000 edge_6_1_0_0 <= 0
 inactive_no_flow_6_2_0_0: flow_6_2_0_0 - 1000 edge_6_2_0_0 <= 0
 inactive_no_flow_6_3_0_0: flow_6_3_0_0 - 1000 edge_6_3_0_0 <= 0
 inactive_no_flow_6_4_0_0: flow_6_4_0_0 - 1000 edge_6_4_0_0 <= 0
 inactive_no_flow_6_5_0_0: flow_6_5_0_0 - 1000 edge_6_5_0_0 <= 0
 inactive_no_flow_6_7_0_0: flow_6_7_0_0 - 1000 edge_6_7_0_0 <= 0
 inactive_no_flow_6_8_0_0: flow_6_8_0_0 - 1000 edge_6_8_0_0 <= 0
 inactive_no_flow_6_9_0_0: flow_6_9_0_0 - 1000 edge_6_9_0_0 <= 0
 inactive_no_flow_6_11_0_0: flow_6_11_0_0 - 1000 edge_6_11_0_0 <= 0
 inactive_no_flow_6_12_0_0: flow_6_12_0_0 - 1000 edge_6_12_0_0 <= 0
 inactive_no_flow_6_13_0_0: flow_6_13_0_0 - 1000 edge_6_13_0_0 <= 0
 inactive_no_flow_6_14_0_0: flow_6_14_0_0 - 1000 edge_6_14_0_0 <= 0
 inactive_no_flow_6_15_0_0: flow_6_15_0_0 - 1000 edge_6_15_0_0 <= 0
 inactive_no_flow_6_16_0_0: flow_6_16_0_0 - 1000 edge_6_16_0_0 <= 0
 inactive_no_flow_7_2_0_0: flow_7_2_0_0 - 1000 edge_7_2_0_0 <= 0
 inactive_no_flow_7_3_0_0: flow_7_3_0_0 - 1000 edge_7_3_0_0 <= 0
 inactive_no_flow_7_4_0_0: flow_7_4_0_0 - 1000 edge_7_4_0_0 <= 0
 inactive_no_flow_7_5_0_0: flow_7_5_0_0 - 1000 edge_7_5_0_0 <= 0
 inactive_no_flow_7_6_0_0: flow_7_6_0_0 - 1000 edge_7_6_0_0 <= 0
 inactive_no_flow_7_8_0_0: flow_7_8_0_0 - 1000 edge_7_8_0_0 <= 0
 inactive_no_flow_7_9_0_0: flow_7_9_0_0 - 1000 edge_7_9_0_0 <= 0
 inactive_no_flow_7_11_0_0: flow_7_11_0_0 - 1000 edge_7_11_0_0 <= 0
 inactive_no_flow_7_12_0_0: flow_7_12_0_0 - 1000 edge_7_12_0_0 <= 0
 inactive_no_flow_7_13_0_0: flow_7_13_0_0 - 1000 edge_7_13_0_0 <= 0
 inactive_no_flow_7_15_0_0: flow_7_15_0_0 - 1000 edge_7_15_0_0 <= 0
 inactive_no_flow_7_16_0_0: flow_7_16_0_0 - 1000 edge_7_16_0_0 <= 0
 inactive_no_flow_8_1_0_0: flow_8_1_0_0 - 1000 edge_8_1_0_0 <= 0
 inactive_no_flow_8_2_0_0: flow_8_2_0_0 - 1000 edge_8_2_0_0 <= 0
 inactive_no_flow_8_3_0_0: flow_8_3_0_0 - 1000 edge_8_3_0_0 <= 0
 inactive_no_flow_8_4_0_0: flow_8_4_0_0 - 1000 edge_8_4_0_0 <= 0
 inactive_no_flow_8_5_0_0: flow_8_5_0_0 - 1000 edge_8_5_0_0 <= 0
 inactive_no_flow_8_6_0_0: flow_8_6_0_0 - 1000 edge_8_6_0_0 <= 0
 inactive_no_flow_8_7_0_0: flow_8_7_0_0 - 1000 edge_8_7_0_0 <= 0
 inactive_no_flow_8_9_0_0: flow_8_9_0_0 - 1000 edge_8_9_0_0 <= 0
 inactive_no_flow_8_10_0_0: flow_8_10_0_0 - 1000 edge_8_10_0_0 <= 0
 inactive_no_flow_8_11_0_0: flow_8_11_0_0 - 1000 edge_8_11_0_0 <= 0
 inactive_no_flow_8_12_0_0: flow_8_12_0_0 - 1000 edge_8_12_0_0 <= 0
 inactive_no_flow_8_13_0_0: flow_8_13_0_0 - 1000 edge_8_13_0_0 <= 0
 inactive_no_flow_8_14_0_0: flow_8_14_0_0 - 1000 edge_8_14_0_0 <= 0
 inactive_no_flow_8_15_0_0: flow_8_15_0_0 - 1000 edge_8_15_0_0 <= 0
 inactive_no_flow_8_16_0_0: flow_8_16_0_0 - 1000 edge_8_16_0_0 <= 0
 inactive_no_flow_9_3_0_0: flow_9_3_0_0 - 1000 edge_9_3_0_0 <= 0
 inactive_no_flow_9_4_0_0: flow_9_4_0_0 - 1000 edge_9_4_0_0 <= 0
 inactive_no_flow_9_6_0_0: flow_9_6_0_0 - 1000 edge_9_6_0_0 <= 0
 inactive_no_flow_9_7_0_0: flow_9_7_0_0 - 1000 edge_9_7_0_0 <= 0
 inactive_no_flow_9_8_0_0: flow_9_8_0_0 - 1000 edge_9_8_0_0 <= 0
 inactive_no_flow_9_11_0_0: flow_9_11_0_0 - 1000 edge_9_11_0_0 <= 0
 inactive_no_flow_9_12_0_0: flow_9_12_0_0 - 1000 edge_9_12_0_0 <= 0
 inactive_no_flow_9_13_0_0: flow_9_13_0_0 - 1000 edge_9_13_0_0 <= 0
 inactive_no_flow_9_15_0_0: flow_9_15_0_0 - 1000 edge_9_15_0_0 <= 0
 inactive_no_flow_9_16_0_0: flow_9_16_0_0 - 1000 edge_9_16_0_0 <= 0
 inactive_no_flow_11_1_0_0: flow_11_1_0_0 - 1000 edge_11_1_0_0 <= 0
 inactive_no_flow_11_2_0_0: flow_11_2_0_0 - 1000 edge_11_2_0_0 <= 0
 inactive_no_flow_11_3_0_0: flow_11_3_0_0 - 1000 edge_11_3_0_0 <= 0
 inactive_no_flow_11_4_0_0: flow_11_4_0_0 - 1000 edge_11_4_0_0 <= 0
 inactive_no_flow_11_5_0_0: flow_11_5_0_0 - 1000 edge_11_5_0_0 <= 0
 inactive_no_flow_11_6_0_0: flow_11_6_0_0 - 1000 edge_11_6_0_0 <= 0
 inactive_no_flow_11_7_0_0: flow_11_7_0_0 - 1000 edge_11_7_0_0 <= 0
 inactive_no_flow_11_8_0_0: flow_11_8_0_0 - 1000 edge_11_8_0_0 <= 0
 inactive_no_flow_11_9_0_0: flow_11_9_0_0 - 1000 edge_11_9_0_0 <= 0
 inactive_no_flow_11_10_0_0: flow_11_10_0_0 - 1000 edge_11_10_0_0 <= 0
 inactive_no_flow_11_12_0_0: flow_11_12_0_0 - 1000 edge_11_12_0_0 <= 0
 inactive_no_flow_11_13_0_0: flow_11_13_0_0 - 1000 edge_11_13_0_0 <= 0
 inactive_no_flow_11_14_0_0: flow_11_14_0_0 - 1000 edge_11_14_0_0 <= 0
 inactive_no_flow_11_15_0_0: flow_11_15_0_0 - 1000 edge_11_15_0_0 <= 0
 inactive_no_flow_11_16_0_0: flow_11_16_0_0 - 1000 edge_11_16_0_0 <= 0
 inactive_no_flow_12_1_0_0: flow_12_1_0_0 - 1000 edge_12_1_0_0 <= 0
 inactive_no_flow_12_2_0_0: flow_12_2_0_0 - 1000 edge_12_2_0_0 <= 0
 inactive_no_flow_12_3_0_0: flow_12_3_0_0 - 1000 edge_12_3_0_0 <= 0
 inactive_no_flow_12_4_0_0: flow_12_4_0_0 - 1000 edge_12_4_0_0 <= 0
 inactive_no_flow_12_5_0_0: flow_12_5_0_0 - 1000 edge_12_5_0_0 <= 0
 inactive_no_flow_12_6_0_0: flow_12_6_0_0 - 1000 edge_12_6_0_0 <= 0
 inactive_no_flow_12_7_0_0: flow_12_7_0_0 - 1000 edge_12_7_0_0 <= 0
 inactive_no_flow_12_8_0_0: flow_12_8_0_0 - 1000 edge_12_8_0_0 <= 0
 inactive_no_flow_12_9_0_0: flow_12_9_0_0 - 1000 edge_12_9_0_0 <= 0
 inactive_no_flow_12_10_0_0: flow_12_10_0_0 - 1000 edge_12_10_0_0 <= 0
 inactive_no_flow_12_11_0_0: flow_12_11_0_0 - 1000 edge_12_11_0_0 <= 0
 inactive_no_flow_12_13_0_0: flow_12_13_0_0 - 1000 edge_12_13_0_0 <= 0
 inactive_no_flow_12_14_0_0: flow_12_14_0_0 - 1000 edge_12_14_0_0 <= 0
 inactive_no_flow_12_15_0_0: flow_12_15_0_0 - 1000 edge_12_15_0_0 <= 0
 inactive_no_flow_12_16_0_0: flow_12_16_0_0 - 1000 edge_12_16_0_0 <= 0
 inactive_no_flow_13_7_0_0: flow_13_7_0_0 - 1000 edge_13_7_0_0 <= 0
 inactive_no_flow_13_9_0_0: flow_13_9_0_0 - 1000 edge_13_9_0_0 <= 0
 inactive_no_flow_13_12_0_0: flow_13_12_0_0 - 1000 edge_13_12_0_0 <= 0
 inactive_no_flow_13_14_0_0: flow_13_14_0_0 - 1000 edge_13_14_0_0 <= 0
 inactive_no_flow_13_15_0_0: flow_13_15_0_0 - 1000 edge_13_15_0_0 <= 0
 inactive_no_flow_13_16_0_0: flow_13_16_0_0 - 1000 edge_13_16_0_0 <= 0
 inactive_no_flow_14_2_0_0: flow_14_2_0_0 - 1000 edge_14_2_0_0 <= 0
 inactive_no_flow_14_4_0_0: flow_14_4_0_0 - 1000 edge_14_4_0_0 <= 0
 inactive_no_flow_14_6_0_0: flow_14_6_0_0 - 1000 edge_14_6_0_0 <= 0
 inactive_no_flow_14_7_0_0: flow_14_7_0_0 - 1000 edge_14_7_0_0 <= 0
 inactive_no_flow_14_8_0_0: flow_14_8_0_0 - 1000 edge_14_8_0_0 <= 0
 inactive_no_flow_14_12_0_0: flow_14_12_0_0 - 1000 edge_14_12_0_0 <= 0
 inactive_no_flow_14_13_0_0: flow_14_13_0_0 - 1000 edge_14_13_0_0 <= 0
 inactive_no_flow_14_15_0_0: flow_14_15_0_0 - 1000 edge_14_15_0_0 <= 0
 inactive_no_flow_14_16_0_0: flow_14_16_0_0 - 1000 edge_14_16_0_0 <= 0
 inactive_no_flow_15_1_0_0: flow_15_1_0_0 - 1000 edge_15_1_0_0 <= 0
 inactive_no_flow_15_2_0_0: flow_15_2_0_0 - 1000 edge_15_2_0_0 <= 0
 inactive_no_flow_15_3_0_0: flow_15_3_0_0 - 1000 edge_15_3_0_0 <= 0
 inactive_no_flow_15_4_0_0: flow_15_4_0_0 - 1000 edge_15_4_0_0 <= 0
 inactive_no_flow_15_5_0_0: flow_15_5_0_0 - 1000 edge_15_5_0_0 <= 0
 inactive_no_flow_15_6_0_0: flow_15_6_0_0 - 1000 edge_15_6_0_0 <= 0
 inactive_no_flow_15_7_0_0: flow_15_7_0_0 - 1000 edge_15_7_0_0 <= 0
 inactive_no_flow_15_8_0_0: flow_15_8_0_0 - 1000 edge_15_8_0_0 <= 0
 inactive_no_flow_15_9_0_0: flow_15_9_0_0 - 1000 edge_15_9_0_0 <= 0
 inactive_no_flow_15_11_0_0: flow_15_11_0_0 - 1000 edge_15_11_0_0 <= 0
 inactive_no_flow_15_12_0_0: flow_15_12_0_0 - 1000 edge_15_12_0_0 <= 0
 inactive_no_flow_15_13_0_0: flow_15_13_0_0 - 1000 edge_15_13_0_0 <= 0
 inactive_no_flow_15_14_0_0: flow_15_14_0_0 - 1000 edge_15_14_0_0 <= 0
 inactive_no_flow_15_16_0_0: flow_15_16_0_0 - 1000 edge_15_16_0_0 <= 0
 inactive_no_flow_16_11_0_0: flow_16_11_0_0 - 1000 edge_16_11_0_0 <= 0
 inactive_no_flow_16_13_0_0: flow_16_13_0_0 - 1000 edge_16_13_0_0 <= 0
 inactive_no_flow_16_15_0_0: flow_16_15_0_0 - 1000 edge_16_15_0_0 <= 0
Bounds
Binaries
 edge_0_1_0_0 edge_0_2_0_0 edge_0_3_0_0 edge_0_4_0_0 edge_0_5_0_0
 edge_0_6_0_0 edge_0_8_0_0 edge_0_11_0_0 edge_0_12_0_0 edge_0_15_0_0
 edge_1_2_0_0 edge_1_3_0_0 edge_1_4_0_0 edge_1_5_0_0 edge_1_6_0_0
 edge_1_7_0_0 edge_1_8_0_0 edge_1_9_0_0 edge_1_11_0_0 edge_1_12_0_0
 edge_1_16_0_0 edge_2_1_0_0 edge_2_3_0_0 edge_2_4_0_0 edge_2_5_0_0
 edge_2_6_0_0 edge_2_7_0_0 edge_2_8_0_0 edge_2_11_0_0 edge_2_12_0_0
 edge_2_13_0_0 edge_2_14_0_0 edge_2_15_0_0 edge_2_16_0_0 edge_3_1_0_0
 edge_3_2_0_0 edge_3_4_0_0 edge_3_5_0_0 edge_3_6_0_0 edge_3_7_0_0
 edge_3_8_0_0 edge_3_9_0_0 edge_3_11_0_0 edge_3_12_0_0 edge_3_13_0_0
 edge_3_14_0_0 edge_3_15_0_0 edge_3_16_0_0 edge_4_1_0_0 edge_4_2_0_0
 edge_4_3_0_0 edge_4_5_0_0 edge_4_6_0_0 edge_4_11_0_0 edge_4_12_0_0
 edge_5_1_0_0 edge_5_2_0_0 edge_5_3_0_0 edge_5_4_0_0 edge_5_6_0_0
 edge_5_7_0_0 edge_5_8_0_0 edge_5_9_0_0 edge_5_11_0_0 edge_5_12_0_0
 edge_5_13_0_0 edge_5_15_0_0 edge_5_16_0_0 edge_6_1_0_0 edge_6_2_0_0
 edge_6_3_0_0 edge_6_4_0_0 edge_6_5_0_0 edge_6_7_0_0 edge_6_8_0_0
 edge_6_9_0_0 edge_6_11_0_0 edge_6_12_0_0 edge_6_13_0_0 edge_6_14_0_0
 edge_6_15_0_0 edge_6_16_0_0 edge_7_2_0_0 edge_7_3_0_0 edge_7_4_0_0
 edge_7_5_0_0 edge_7_6_0_0 edge_7_8_0_0 edge_7_9_0_0 edge_7_11_0_0
 edge_7_12_0_0 edge_7_13_0_0 edge_7_15_0_0 edge_7_16_0_0 edge_8_1_0_0
 edge_8_2_0_0 edge_8_3_0_0 edge_8_4_0_0 edge_8_5_0_0 edge_8_6_0_0
 edge_8_7_0_0 edge_8_9_0_0 edge_8_10_0_0 edge_8_11_0_0 edge_8_12_0_0
 edge_8_13_0_0 edge_8_14_0_0 edge_8_15_0_0 edge_8_16_0_0 edge_9_3_0_0
 edge_9_4_0_0 edge_9_6_0_0 edge_9_7_0_0 edge_9_8_0_0 edge_9_11_0_0
 edge_9_12_0_0 edge_9_13_0_0 edge_9_15_0_0 edge_9_16_0_0 edge_11_1_0_0
 edge_11_2_0_0 edge_11_3_0_0 edge_11_4_0_0 edge_11_5_0_0 edge_11_6_0_0
 edge_11_7_0_0 edge_11_8_0_0 edge_11_9_0_0 edge_11_10_0_0 edge_11_12_0_0
 edge_11_13_0_0 edge_11_14_0_0 edge_11_15_0_0 edge_11_16_0_0 edge_12_1_0_0
 edge_12_2_0_0 edge_12_3_0_0 edge_12_4_0_0 edge_12_5_0_0 edge_12_6_0_0
 edge_12_7_0_0 edge_12_8_0_0 edge_12_9_0_0 edge_12_10_0_0 edge_12_11_0_0
 edge_12_13_0_0 edge_12_14_0_0 edge_12_15_0_0 edge_12_16_0_0 edge_13_7_0_0
 edge_13_9_0_0 edge_13_12_0_0 edge_13_14_0_0 edge_13_15_0_0 edge_13_16_0_0
 edge_14_2_0_0 edge_14_4_0_0 edge_14_6_0_0 edge_14_7_0_0 edge_14_8_0_0
 edge_14_12_0_0 edge_14_13_0_0 edge_14_15_0_0 edge_14_16_0_0 edge_15_1_0_0
 edge_15_2_0_0 edge_15_3_0_0 edge_15_4_0_0 edge_15_5_0_0 edge_15_6_0_0
 edge_15_7_0_0 edge_15_8_0_0 edge_15_9_0_0 edge_15_11_0_0 edge_15_12_0_0
 edge_15_13_0_0 edge_15_14_0_0 edge_15_16_0_0 edge_16_11_0_0 edge_16_13_0_0
 edge_16_15_0_0
End
